param Vnom := 12.66;
 param Barra_SE := 1;
     
#-----------------------------------------------------------------------
 
param : Ob :     PD         QD      QC     Vini:=
          1      0          0        0    12.6600
          2    100         60        0    12.6224
          3     90         40        0    12.4440
          4    120         80        0    12.3493
          5     60         30        0    12.2556
          6     60         20        0    12.0227
          7    200        100        0    11.9785
          8    200        100        0    11.9172
          9     60         20        0    11.8379
         10     60         20        0    11.7642
         11     45         30        0    11.7533
         12     60         35        0    11.7344
         13     60         35        0    11.6570
         14    120         80        0    11.6283
         15     60         10        0    11.6104
         16     60         20        0    11.5931
         17     60         20        0    11.5674
         18     90         40        0    11.5597
         19     90         40        0    12.6157
         20     90         40        0    12.5704
         21     90         40        0    12.5615
         22     90         40        0    12.5535
         23     90         50        0    12.3986
         24    420        200        0    12.3141
         25    420        200        0    12.2720
         26     60         25        0    11.9982
         27     60         25        0    11.9658
         28     60         20        0    11.8210
         29    120         70        0    11.7169
         30    200        600        0    11.6719
         31    150         70        0    11.6192
         32    210        100        0    11.6076
         33     60         40        0    11.6040
         ;
         
#-----------------------------------------------------------------------


param :      Ol:    linha         R                X     Imax   L :=    
          1      2       1       0.22140      0.268    380.0000   0.4164
          2      3       2       0.22140      0.268    380.0000   2.2267
          3      4       3       0.45650      0.353    250.0000   0.8018
          4      5       4       0.45650      0.353    250.0000   0.8348
          5      6       5       0.45650      0.353    250.0000   1.7941
          6      7       6       1.37400      0.355    120.0000   0.1362
          7      8       7       1.37400      0.355    120.0000   0.5178
          8      9       8       1.37400      0.355    120.0000   0.7496
          9     10       9       1.37400      0.355    120.0000   0.7598
         10     11      10       1.37400      0.355    120.0000   0.1431
         11     12      11       1.37400      0.355    120.0000   0.2725
         12     13      12       1.37400      0.355    120.0000   1.0684
         13     14      13       1.37400      0.355    120.0000   0.3942
         14     15      14       1.37400      0.355    120.0000   0.4301
         15     16      15       1.37400      0.355    120.0000   0.5432
         16     17      16       1.37400      0.355    120.0000   0.9381
         17     18      17       1.37400      0.355    120.0000   0.5328
          2     19      18       2.71800      0.374     70.0000   0.0603
         19     20      19       2.71800      0.374     70.0000   0.5534
         20     21      20       2.71800      0.374     70.0000   0.1507
         21     22      21       2.71800      0.374     70.0000   0.2608
          3     23      22       1.37400      0.355    120.0000   0.3284
         23     24      23       1.37400      0.355    120.0000   0.6536
         24     25      24       1.37400      0.355    120.0000   0.6521
          6     26      25       1.37400      0.355    120.0000   0.1477
         26     27      26       1.37400      0.355    120.0000   0.2068
         27     28      27       1.37400      0.355    120.0000   0.7707
         28     29      28       1.37400      0.355    120.0000   0.5853
         29     30      29       1.37400      0.355    120.0000   0.3694
         30     31      30       1.37400      0.355    120.0000   0.7092
         31     32      31       1.37400      0.355    120.0000   0.2260
         32     33      32       1.37400      0.355    120.0000   0.2482
         
;

#--------------------------------------------------------------------------------  
#fixar a magnitude de tensao da subestaçaoao no valor nominal
fix  { i in Ob: i == Barra_SE}
      V[i] := Vnom;

#--------------------------------------------------------------------------------
#fixar a injecao de potencia ativa no no de carga igual a zero
    fix  {i in Ob: i != Barra_SE }
   PS[i] := 0;

#--------------------------------------------------------------------------------
#fixar a injecao de potencia reativa no no de carga igual a zero
    fix  {i in Ob: i != Barra_SE }
   QS[i] := 0;

#--------------------------------------------------------------------------------
#normalizacao e calculo da impedancia ao quadrado

for {(i,j) in Ol} {
let R[i,j] := R[i,j] * L[i,j] / 1000;
let X[i,j] := X[i,j] * L[i,j] / 1000;
let Z2[i,j] := (R[i,j])^2 + (X[i,j])^2 ;
};

#--------------------------------------------------------------------------------

let Vmax   := Vnom * 1.0;
let Vmin   := Vnom * 0.9130;

